(set-option :print-success false)
(set-logic QF_UF)
(declare-sort x118 0)
(declare-sort x137 0)
(declare-fun x79 () x137)
(declare-fun x27 () x137)
(declare-fun x15 () x137)
(declare-fun x135 () x137)
(declare-fun x84 () x137)
(declare-fun x17 (x137 x137) x137)
(assert (not (and (and (and (= x27 (x17 x15 x15)) (= (x17 x79 x84) x135)) (= (x17 x27 x27) x84)) (= x79 (x17 x27 x15)))))
(assert (not (and (and (= (x17 x135 x135) x79) (and (= x15 (x17 x84 x79)) (= (x17 x27 x27) x135))) (= (x17 x135 x27) x84))))
(assert (not (and (= (x17 x15 x27) x84) (and (= (x17 x15 x15) x79) (and (= x15 (x17 x27 x27)) (= (x17 x84 x79) x135))))))
(assert (not (and (= (x17 x79 x135) x27) (and (and (= (x17 x27 x15) x84) (= x79 (x17 x135 x135))) (= (x17 x79 x79) x15)))))
(assert (not (and (and (and (= (x17 x84 x27) x135) (= x15 (x17 x79 x79))) (= x27 (x17 x15 x15))) (= (x17 x15 x79) x84))))
(assert (not (and (= x135 (x17 x79 x15)) (and (= (x17 x79 x79) x27) (and (= x79 (x17 x15 x15)) (= (x17 x135 x27) x84))))))
(assert (not (and (and (and (= (x17 x84 x84) x135) (= (x17 x27 x79) x15)) (= (x17 x135 x135) x79)) (= (x17 x135 x84) x27))))
(assert (not (and (and (= (x17 x79 x79) x84) (and (= (x17 x135 x84) x27) (= x79 (x17 x15 x15)))) (= (x17 x79 x15) x135))))
(assert (and (or (= x27 (x17 x27 (x17 x27 x27))) (or (or (= (x17 x27 (x17 x27 x15)) x15) (or (= x135 (x17 x27 (x17 x27 x135))) (= x84 (x17 x27 (x17 x27 x84))))) (= (x17 x27 (x17 x27 x79)) x79))) (and (and (or (= x27 (x17 x15 (x17 x15 x27))) (or (or (= x15 (x17 x15 (x17 x15 x15))) (or (= x84 (x17 x15 (x17 x15 x84))) (= x135 (x17 x15 (x17 x15 x135))))) (= (x17 x15 (x17 x15 x79)) x79))) (and (or (= x27 (x17 x135 (x17 x135 x27))) (or (or (= (x17 x135 (x17 x135 x15)) x15) (or (= x135 (x17 x135 (x17 x135 x135))) (= (x17 x135 (x17 x135 x84)) x84))) (= (x17 x135 (x17 x135 x79)) x79))) (or (= (x17 x84 (x17 x84 x27)) x27) (or (or (or (= x84 (x17 x84 (x17 x84 x84))) (= x135 (x17 x84 (x17 x84 x135)))) (= x15 (x17 x84 (x17 x84 x15)))) (= (x17 x84 (x17 x84 x79)) x79))))) (or (= x27 (x17 x79 (x17 x79 x27))) (or (or (= (x17 x79 (x17 x79 x15)) x15) (or (= x84 (x17 x79 (x17 x79 x84))) (= x135 (x17 x79 (x17 x79 x135))))) (= x79 (x17 x79 (x17 x79 x79))))))))
(assert (not (and (and (and (= (x17 x84 x84) x15) (= (x17 x27 x79) x135)) (= (x17 x15 x15) x79)) (= x27 (x17 x15 x84)))))
(assert (not (and (= (x17 x84 x15) x79) (and (and (= x135 (x17 x79 x27)) (= x84 (x17 x15 x15))) (= (x17 x84 x84) x27)))))
(assert (not (and (= (x17 x15 x84) x79) (and (= x135 (x17 x15 x15)) (and (= x27 (x17 x79 x135)) (= (x17 x84 x84) x15))))))
(assert (not (and (and (and (= (x17 x27 x135) x79) (= x15 (x17 x84 x84))) (= x135 (x17 x15 x15))) (= x27 (x17 x15 x84)))))
(assert (not (and (and (and (= (x17 x84 x84) x79) (= (x17 x27 x15) x135)) (= x15 (x17 x79 x79))) (= (x17 x79 x84) x27))))
(assert (not (and (and (= x79 (x17 x84 x84)) (and (= (x17 x135 x135) x84) (= (x17 x15 x79) x27))) (= x15 (x17 x84 x135)))))
(assert (not (and (= x135 (x17 x15 x79)) (and (and (= x15 (x17 x79 x79)) (= (x17 x135 x27) x84)) (= x27 (x17 x15 x15))))))
(assert (not (and (and (and (= x84 (x17 x15 x79)) (= (x17 x27 x27) x135)) (= x79 (x17 x135 x135))) (= x15 (x17 x135 x27)))))
(assert (not (and (and (and (= x84 (x17 x79 x79)) (= (x17 x15 x27) x135)) (= (x17 x84 x84) x27)) (= x15 (x17 x84 x79)))))
(assert (not (and (and (and (= (x17 x84 x27) x79) (= x135 (x17 x15 x15))) (= (x17 x135 x135) x27)) (= (x17 x135 x15) x84))))
(assert (not (and (= x84 (x17 x27 x79)) (and (= x135 (x17 x27 x27)) (and (= (x17 x79 x79) x27) (= (x17 x84 x135) x15))))))
(assert (not (and (and (and (= (x17 x84 x15) x79) (= x27 (x17 x135 x135))) (= (x17 x27 x27) x15)) (= (x17 x27 x135) x84))))
(assert (not (and (and (= x79 (x17 x135 x135)) (and (= x135 (x17 x15 x15)) (= (x17 x84 x79) x27))) (= x84 (x17 x135 x15)))))
(assert (not (and (and (and (= x84 (x17 x27 x135)) (= (x17 x15 x15) x79)) (= (x17 x79 x79) x135)) (= (x17 x79 x15) x27))))
(assert (not (and (= x135 (x17 x15 x27)) (and (= x79 (x17 x15 x15)) (and (= (x17 x27 x27) x15) (= x84 (x17 x135 x79)))))))
(assert (not (and (and (= (x17 x15 x15) x79) (and (= (x17 x135 x79) x27) (= (x17 x84 x84) x15))) (= (x17 x15 x84) x135))))
(assert (not (and (and (and (= (x17 x15 x15) x84) (= (x17 x27 x79) x135)) (= x79 (x17 x84 x84))) (= (x17 x84 x15) x27))))
(assert (not (and (and (and (= (x17 x15 x15) x84) (= x79 (x17 x27 x135))) (= x135 (x17 x84 x84))) (= x27 (x17 x84 x15)))))
(assert (not (and (= (x17 x27 x84) x135) (and (and (= (x17 x84 x84) x27) (= (x17 x135 x79) x15)) (= (x17 x27 x27) x79)))))
(assert (let ((x123 (x17 x135 x135)) (x40 (x17 x79 x135)) (x38 (x17 x79 x15)) (x47 (x17 x84 x135)) (x151 (x17 x84 x84)) (x126 (x17 x27 x79)) (x146 (x17 x15 x84)) (x85 (x17 x135 x79)) (x80 (x17 x15 x79)) (x109 (x17 x27 x84)) (x93 (x17 x15 x27)) (x45 (x17 x135 x27)) (x60 (x17 x27 x15)) (x10 (x17 x15 x15)) (x134 (x17 x27 x27)) (x99 (x17 x79 x27)) (x90 (x17 x84 x15)) (x51 (x17 x135 x15)) (x3 (x17 x79 x79)) (x95 (x17 x15 x135)) (x22 (x17 x84 x79)) (x88 (x17 x135 x84)) (x11 (x17 x27 x135)) (x63 (x17 x84 x27)) (x124 (x17 x79 x84))) (let ((x21 (not (= x84 x146))) (x101 (not (= x84 x85))) (x115 (not (= x109 x27))) (x98 (not (= x135 x51))) (x83 (not (= x88 x135))) (x66 (not (= x15 x60))) (x94 (not (= x88 x84))) (x89 (not (= x84 x126))) (x121 (not (= x38 x84))) (x50 (not (= x22 x79))) (x81 (not (= x123 x135))) (x55 (not (= x15 x134))) (x72 (not (= x60 x79))) (x97 (not (= x135 x63))) (x122 (not (= x60 x84))) (x143 (not (= x80 x135))) (x33 (not (= x135 x124))) (x112 (not (= x93 x84))) (x120 (not (= x51 x15))) (x78 (not (= x135 x151))) (x14 (not (= x15 x63))) (x74 (not (= x15 x38))) (x25 (not (= x90 x79))) (x2 (not (= x123 x79))) (x20 (not (= x126 x27))) (x152 (not (= x40 x84))) (x149 (not (= x135 x3))) (x12 (not (= x146 x15))) (x77 (not (= x10 x15))) (x65 (not (= x38 x79))) (x130 (not (= x151 x27))) (x59 (not (= x51 x84))) (x71 (not (= x151 x84))) (x44 (not (= x84 x109))) (x145 (not (= x40 x15))) (x129 (not (= x15 x45))) (x127 (not (= x15 x93))) (x75 (not (= x135 x38))) (x7 (not (= x151 x15))) (x61 (not (= x123 x27))) (x64 (not (= x88 x15))) (x153 (not (= x151 x79))) (x128 (not (= x84 x22))) (x58 (not (= x22 x15))) (x62 (not (= x79 x11))) (x113 (not (= x124 x27))) (x24 (not (= x10 x84))) (x157 (not (= x79 x45))) (x139 (not (= x11 x135))) (x147 (not (= x134 x135))) (x96 (not (= x15 x47))) (x32 (not (= x99 x79))) (x34 (not (= x63 x27))) (x140 (not (= x51 x79))) (x29 (not (= x84 x134))) (x9 (not (= x99 x15))) (x103 (not (= x90 x27))) (x36 (not (= x15 x3))) (x76 (not (= x40 x135))) (x16 (not (= x15 x95))) (x31 (not (= x135 x109))) (x54 (not (= x135 x85))) (x4 (not (= x79 x95))) (x26 (not (= x27 x88))) (x1 (not (= x15 x109))) (x23 (not (= x95 x135))) (x117 (not (= x84 x11))) (x136 (not (= x22 x27))) (x69 (not (= x84 x3))) (x8 (not (= x15 x123))) (x102 (not (= x27 x45))) (x18 (not (= x79 x10))) (x156 (not (= x27 x51))) (x148 (not (= x95 x27))) (x56 (not (= x40 x27))) (x119 (not (= x27 x134))) (x91 (not (= x27 x47))) (x42 (not (= x79 x134))) (x104 (not (= x90 x84))) (x41 (not (= x79 x126))) (x133 (not (= x124 x79))) (x108 (not (= x79 x80))) (x82 (not (= x11 x27))) (x105 (not (= x126 x15))) (x57 (not (= x27 x146))) (x39 (not (= x109 x79))) (x52 (not (= x135 x93))) (x53 (not (= x85 x79))) (x6 (not (= x93 x27))) (x150 (not (= x135 x10))) (x92 (not (= x79 x47))) (x141 (not (= x135 x45))) (x86 (not (= x84 x63))) (x132 (not (= x90 x15))) (x154 (not (= x15 x11))) (x19 (not (= x90 x135))) (x100 (not (= x22 x135))) (x87 (not (= x3 x79))) (x5 (not (= x27 x60))) (x116 (not (= x80 x84))) (x131 (not (= x126 x135))) (x142 (not (= x15 x80))) (x30 (not (= x146 x135))) (x67 (not (= x15 x124))) (x37 (not (= x38 x27))) (x125 (not (= x63 x79))) (x138 (not (= x84 x124))) (x144 (not (= x84 x99))) (x46 (not (= x79 x40))) (x13 (not (= x27 x10))) (x49 (not (= x135 x60))) (x107 (not (= x85 x27))) (x68 (not (= x84 x45))) (x110 (not (= x135 x47))) (x43 (not (= x85 x15))) (x70 (not (= x84 x47))) (x155 (not (= x93 x79))) (x35 (not (= x135 x99))) (x114 (not (= x84 x95))) (x73 (not (= x84 x123))) (x111 (not (= x27 x3))) (x28 (not (= x99 x27))) (x106 (not (= x79 x146))) (x158 (not (= x80 x27))) (x48 (not (= x79 x88)))) (or (and (and (and (or x20 x28) (and (or x5 x6) (and (or x115 x34) (or x102 x82)))) (or x119 x119)) (and (and (and (and (or x158 x37) (and (and (or x57 x103) (or x148 x156)) (or x13 x13))) (or x5 x6)) (and (and (or x115 x34) (and (and (and (or x130 x130) (or x91 x26)) (or x57 x103)) (or x113 x136))) (and (or x102 x82) (and (or x107 x56) (and (and (or x26 x91) (or x61 x61)) (or x156 x148)))))) (and (or x20 x28) (and (or x111 x111) (and (and (or x107 x56) (or x136 x113)) (or x37 x158)))))) (or (or (or (and (and (and (or x144 x89) (and (and (or x121 x116) (and (or x152 x101) (or x128 x138))) (or x69 x69))) (and (and (and (or x86 x44) (and (and (and (or x71 x71) (or x94 x70)) (or x21 x104)) (or x138 x128))) (and (and (and (or x114 x59) (and (or x73 x73) (or x70 x94))) (or x101 x152)) (or x117 x68))) (and (and (or x121 x116) (and (and (or x114 x59) (or x21 x104)) (or x24 x24))) (or x112 x122)))) (and (or x29 x29) (and (and (or x112 x122) (and (or x44 x86) (or x117 x68))) (or x144 x89)))) (and (and (and (and (and (and (or x33 x100) (and (and (or x78 x78) (or x83 x110)) (or x19 x30))) (or x97 x31)) (and (and (and (and (or x81 x81) (or x110 x83)) (or x23 x98)) (or x54 x76)) (or x139 x141))) (and (or x49 x52) (and (and (or x150 x150) (and (or x30 x19) (or x23 x98))) (or x75 x143)))) (and (or x35 x131) (and (and (or x75 x143) (and (or x54 x76) (or x33 x100))) (or x149 x149)))) (and (or x147 x147) (and (and (or x49 x52) (and (or x139 x141) (or x31 x97))) (or x35 x131))))) (and (and (and (or x105 x9) (and (or x127 x66) (and (or x14 x1) (or x154 x129)))) (or x55 x55)) (and (and (and (or x127 x66) (and (and (and (or x120 x16) (or x12 x132)) (or x77 x77)) (or x142 x74))) (and (and (or x1 x14) (and (and (or x132 x12) (and (or x64 x96) (or x7 x7))) (or x58 x67))) (and (or x129 x154) (and (or x43 x145) (and (and (or x8 x8) (or x64 x96)) (or x120 x16)))))) (and (or x105 x9) (and (and (and (or x58 x67) (or x43 x145)) (or x74 x142)) (or x36 x36)))))) (and (and (and (or x41 x32) (and (or x87 x87) (and (or x108 x65) (and (or x53 x46) (or x50 x133))))) (and (and (and (and (or x46 x53) (and (and (or x48 x92) (or x2 x2)) (or x140 x4))) (or x157 x62)) (and (and (or x133 x50) (and (and (or x92 x48) (or x153 x153)) (or x106 x25))) (or x39 x125))) (and (or x72 x155) (and (or x65 x108) (and (or x18 x18) (and (or x25 x106) (or x4 x140))))))) (and (and (and (or x155 x72) (and (or x157 x62) (or x125 x39))) (or x32 x41)) (or x42 x42))))))))
(assert (not (and (= (x17 x135 x84) x15) (and (and (= x135 (x17 x84 x84)) (= x79 (x17 x15 x27))) (= (x17 x135 x135) x27)))))
(assert (not (and (and (= x15 (x17 x135 x135)) (and (= x27 (x17 x84 x15)) (= (x17 x79 x79) x135))) (= x84 (x17 x135 x79)))))
(assert (not (and (= (x17 x27 x135) x79) (and (and (= x27 (x17 x135 x135)) (= x84 (x17 x79 x15))) (= (x17 x27 x27) x15)))))
(assert (let ((x73 (x17 x79 x79)) (x21 (x17 x27 x27)) (x70 (x17 x15 x15)) (x94 (x17 x135 x135)) (x71 (x17 x84 x84))) (or (and (not (= x27 x21)) (and (not (= x73 x27)) (and (and (not (= x71 x27)) (not (= x27 x94))) (not (= x27 x70))))) (or (or (and (not (= x15 x21)) (and (and (and (not (= x15 x71)) (not (= x94 x15))) (not (= x15 x70))) (not (= x15 x73)))) (or (and (not (= x21 x135)) (and (and (not (= x70 x135)) (and (not (= x94 x135)) (not (= x135 x71)))) (not (= x73 x135)))) (and (and (and (not (= x84 x70)) (and (not (= x84 x71)) (not (= x94 x84)))) (not (= x73 x84))) (not (= x84 x21))))) (and (not (= x79 x21)) (and (not (= x73 x79)) (and (not (= x79 x70)) (and (not (= x71 x79)) (not (= x79 x94))))))))))
(assert (not (and (= x79 (x17 x135 x15)) (and (and (= x135 (x17 x15 x15)) (= x27 (x17 x79 x84))) (= (x17 x135 x135) x84)))))
(assert (not (and (and (= (x17 x135 x135) x27) (and (= (x17 x79 x27) x84) (= (x17 x15 x15) x135))) (= x79 (x17 x135 x15)))))
(assert (not (and (and (and (= x79 (x17 x27 x15)) (= (x17 x84 x84) x135)) (= x15 (x17 x135 x135))) (= x27 (x17 x135 x84)))))
(assert (not (and (= x79 (x17 x84 x135)) (and (= x15 (x17 x84 x84)) (and (= (x17 x135 x135) x84) (= (x17 x79 x15) x27))))))
(assert (not (and (= x79 (x17 x15 x84)) (and (and (= x135 (x17 x79 x27)) (= x15 (x17 x84 x84))) (= (x17 x15 x15) x27)))))
(assert (not (and (= (x17 x84 x27) x79) (and (= x15 (x17 x84 x84)) (and (= x135 (x17 x79 x15)) (= (x17 x27 x27) x84))))))
(assert (not (and (and (= x84 (x17 x79 x79)) (and (= x27 (x17 x15 x84)) (= x79 (x17 x135 x135)))) (= x15 (x17 x79 x135)))))
(assert (not (and (= x15 (x17 x84 x27)) (and (= x79 (x17 x84 x84)) (and (= (x17 x15 x79) x135) (= x84 (x17 x27 x27)))))))
(assert (not (and (= (x17 x135 x79) x27) (and (= (x17 x135 x135) x84) (and (= x135 (x17 x79 x79)) (= (x17 x27 x84) x15))))))
(assert (not (and (and (= x84 (x17 x27 x27)) (and (= (x17 x135 x135) x27) (= x79 (x17 x15 x84)))) (= (x17 x27 x135) x15))))
(assert (not (and (= x84 (x17 x79 x135)) (and (= (x17 x79 x79) x15) (and (= x79 (x17 x135 x135)) (= x27 (x17 x84 x15)))))))
(assert (not (and (and (= (x17 x27 x27) x79) (and (= (x17 x135 x135) x27) (= x84 (x17 x15 x79)))) (= x15 (x17 x27 x135)))))
(assert (not (and (and (= x135 (x17 x84 x84)) (and (= x15 (x17 x27 x135)) (= (x17 x79 x79) x84))) (= x27 (x17 x84 x79)))))
(assert (not (and (and (and (= x84 (x17 x15 x27)) (= (x17 x79 x79) x135)) (= (x17 x135 x135) x27)) (= (x17 x135 x79) x15))))
(assert (not (and (= x27 (x17 x84 x79)) (and (= (x17 x84 x84) x15) (and (= (x17 x27 x15) x135) (= x84 (x17 x79 x79)))))))
(assert (not (and (and (= (x17 x84 x84) x15) (and (= (x17 x135 x15) x79) (= (x17 x27 x27) x84))) (= x135 (x17 x84 x27)))))
(assert (not (and (and (= x79 (x17 x27 x27)) (and (= (x17 x15 x79) x135) (= x27 (x17 x84 x84)))) (= (x17 x27 x84) x15))))
(assert (not (and (= (x17 x84 x15) x135) (and (and (= (x17 x135 x27) x79) (= x84 (x17 x15 x15))) (= (x17 x84 x84) x27)))))
(assert (let ((x101 (x17 x15 x15)) (x128 (x17 x84 x15)) (x116 (x17 x27 x15)) (x104 (x17 x84 x135)) (x69 (x17 x84 x79)) (x112 (x17 x135 x27)) (x152 (x17 x135 x15)) (x86 (x17 x15 x79)) (x117 (x17 x79 x79)) (x29 (x17 x27 x27)) (x44 (x17 x135 x79)) (x122 (x17 x84 x27)) (x73 (x17 x79 x84)) (x70 (x17 x15 x84)) (x144 (x17 x79 x27)) (x68 (x17 x27 x79)) (x59 (x17 x15 x135)) (x24 (x17 x79 x135)) (x121 (x17 x79 x15)) (x21 (x17 x27 x84)) (x138 (x17 x27 x135)) (x89 (x17 x15 x27)) (x114 (x17 x135 x135)) (x94 (x17 x135 x84)) (x71 (x17 x84 x84))) (or (or (and (and (not (= x79 (x17 x117 x117))) (and (and (not (= (x17 x69 x69) x84)) (not (= (x17 x44 x44) x135))) (not (= (x17 x86 x86) x15)))) (not (= (x17 x68 x68) x27))) (or (and (not (= x27 (x17 x116 x116))) (and (not (= (x17 x121 x121) x79)) (and (not (= (x17 x101 x101) x15)) (and (not (= (x17 x152 x152) x135)) (not (= (x17 x128 x128) x84)))))) (or (and (and (and (not (= (x17 x70 x70) x15)) (and (not (= x84 (x17 x71 x71))) (not (= x135 (x17 x94 x94))))) (not (= (x17 x73 x73) x79))) (not (= (x17 x21 x21) x27))) (and (not (= x27 (x17 x138 x138))) (and (not (= x79 (x17 x24 x24))) (and (and (not (= x84 (x17 x104 x104))) (not (= x135 (x17 x114 x114)))) (not (= x15 (x17 x59 x59))))))))) (and (and (and (not (= x15 (x17 x89 x89))) (and (not (= x135 (x17 x112 x112))) (not (= x84 (x17 x122 x122))))) (not (= (x17 x144 x144) x79))) (not (= (x17 x29 x29) x27))))))
(assert (not (and (= x15 (x17 x135 x79)) (and (= (x17 x135 x135) x84) (and (= (x17 x15 x84) x27) (= (x17 x79 x79) x135))))))
(assert (not (and (and (and (= x27 (x17 x15 x79)) (= x135 (x17 x84 x84))) (= x79 (x17 x135 x135))) (= (x17 x135 x84) x15))))
(assert (not (and (= (x17 x27 x84) x15) (and (and (= x27 (x17 x84 x84)) (= x79 (x17 x15 x135))) (= (x17 x27 x27) x135)))))
(assert (not (and (and (and (= x135 (x17 x15 x15)) (= x79 (x17 x27 x84))) (= (x17 x135 x135) x84)) (= (x17 x135 x15) x27))))
(assert (not (and (= (x17 x27 x15) x84) (and (and (= x27 (x17 x15 x15)) (= x79 (x17 x84 x135))) (= x135 (x17 x27 x27))))))
(assert (not (and (= (x17 x27 x15) x84) (and (= (x17 x27 x27) x79) (and (= x27 (x17 x15 x15)) (= (x17 x84 x79) x135))))))
(assert (not (and (and (and (= x15 (x17 x79 x84)) (= (x17 x135 x135) x27)) (= (x17 x27 x27) x84)) (= x79 (x17 x27 x135)))))
(assert (not (and (and (and (= x15 (x17 x135 x135)) (= x84 (x17 x79 x27))) (= (x17 x15 x15) x27)) (= (x17 x15 x135) x79))))
(assert (not (and (and (and (= x84 (x17 x135 x15)) (= (x17 x27 x27) x79)) (= (x17 x79 x79) x15)) (= x135 (x17 x79 x27)))))
(assert (not (and (= (x17 x27 x15) x135) (and (= x79 (x17 x27 x27)) (and (= (x17 x135 x79) x84) (= x27 (x17 x15 x15)))))))
(assert (not (and (= x27 (x17 x135 x15)) (and (and (= (x17 x15 x15) x135) (= (x17 x27 x79) x84)) (= x79 (x17 x135 x135))))))
(assert (not (and (= (x17 x79 x27) x84) (and (and (= x15 (x17 x84 x135)) (= x79 (x17 x27 x27))) (= (x17 x79 x79) x135)))))
(assert (not (and (and (and (= x79 (x17 x15 x27)) (= x84 (x17 x135 x135))) (= (x17 x84 x84) x27)) (= (x17 x84 x135) x15))))
(assert (not (and (and (= (x17 x84 x84) x135) (and (= x84 (x17 x79 x79)) (= (x17 x15 x135) x27))) (= x15 (x17 x84 x79)))))
(assert (let ((x152 (x17 x15 x135)) (x86 (x17 x79 x15)) (x59 (x17 x135 x15)) (x44 (x17 x79 x135)) (x68 (x17 x79 x27)) (x21 (x17 x84 x27)) (x138 (x17 x135 x27)) (x101 (x17 x15 x15)) (x122 (x17 x27 x84)) (x128 (x17 x15 x84)) (x73 (x17 x84 x79)) (x121 (x17 x15 x79)) (x117 (x17 x79 x79)) (x112 (x17 x27 x135)) (x69 (x17 x79 x84)) (x144 (x17 x27 x79)) (x116 (x17 x15 x27)) (x71 (x17 x84 x84)) (x104 (x17 x135 x84)) (x24 (x17 x135 x79)) (x89 (x17 x27 x15)) (x70 (x17 x84 x15)) (x114 (x17 x135 x135)) (x94 (x17 x84 x135)) (x29 (x17 x27 x27))) (and (and (and (and (and (and (and (and (or (or (or (= x71 x15) (or (= x71 x135) (= x71 x84))) (= x79 x71)) (= x71 x27)) (or (= x94 x27) (or (= x79 x94) (or (= x94 x15) (or (= x94 x84) (= x135 x94)))))) (or (or (or (= x70 x15) (or (= x70 x135) (= x84 x70))) (= x79 x70)) (= x27 x70))) (or (or (or (= x15 x73) (or (= x73 x84) (= x73 x135))) (= x73 x79)) (= x73 x27))) (or (= x21 x27) (or (or (= x15 x21) (or (= x135 x21) (= x84 x21))) (= x21 x79)))) (and (or (= x138 x27) (or (= x79 x138) (or (or (= x138 x135) (= x138 x84)) (= x15 x138)))) (and (and (or (or (= x79 x59) (or (= x15 x59) (or (= x59 x135) (= x84 x59)))) (= x27 x59)) (and (or (= x27 x114) (or (= x79 x114) (or (= x15 x114) (or (= x114 x84) (= x114 x135))))) (or (= x104 x27) (or (= x104 x79) (or (= x104 x15) (or (= x104 x84) (= x135 x104))))))) (or (or (= x79 x24) (or (= x15 x24) (or (= x135 x24) (= x84 x24)))) (= x24 x27))))) (and (or (or (or (= x15 x116) (or (= x84 x116) (= x116 x135))) (= x116 x79)) (= x27 x116)) (and (or (= x121 x27) (or (= x79 x121) (or (= x121 x15) (or (= x135 x121) (= x84 x121))))) (and (or (or (= x79 x101) (or (or (= x101 x135) (= x84 x101)) (= x101 x15))) (= x101 x27)) (and (or (or (or (or (= x152 x135) (= x152 x84)) (= x15 x152)) (= x152 x79)) (= x27 x152)) (or (= x27 x128) (or (or (= x128 x15) (or (= x135 x128) (= x128 x84))) (= x79 x128)))))))) (and (and (and (and (or (or (= x79 x44) (or (= x15 x44) (or (= x44 x84) (= x135 x44)))) (= x44 x27)) (or (or (= x79 x69) (or (= x69 x15) (or (= x69 x84) (= x69 x135)))) (= x27 x69))) (or (= x86 x27) (or (= x86 x79) (or (or (= x86 x135) (= x84 x86)) (= x15 x86))))) (or (= x117 x27) (or (or (or (= x117 x135) (= x117 x84)) (= x15 x117)) (= x117 x79)))) (or (= x68 x27) (or (or (= x15 x68) (or (= x68 x84) (= x135 x68))) (= x79 x68))))) (and (and (and (or (or (or (= x15 x89) (or (= x135 x89) (= x84 x89))) (= x79 x89)) (= x27 x89)) (and (or (or (= x79 x122) (or (= x122 x15) (or (= x122 x84) (= x122 x135)))) (= x27 x122)) (or (or (= x79 x112) (or (or (= x112 x84) (= x135 x112)) (= x15 x112))) (= x27 x112)))) (or (= x144 x27) (or (= x79 x144) (or (= x144 x15) (or (= x135 x144) (= x84 x144)))))) (or (= x29 x27) (or (or (or (= x135 x29) (= x29 x84)) (= x29 x15)) (= x79 x29)))))))
(assert (not (and (and (and (= (x17 x135 x27) x15) (= (x17 x84 x84) x79)) (= (x17 x79 x79) x27)) (= (x17 x79 x84) x135))))
(assert (not (and (and (= (x17 x15 x15) x84) (and (= (x17 x135 x135) x15) (= x27 (x17 x79 x84)))) (= (x17 x15 x135) x79))))
(assert (not (and (= (x17 x84 x27) x15) (and (and (= x84 (x17 x27 x27)) (= (x17 x15 x135) x79)) (= (x17 x84 x84) x135)))))
(assert (not (and (and (= x135 (x17 x27 x27)) (and (= (x17 x15 x135) x84) (= (x17 x79 x79) x27))) (= x15 (x17 x27 x79)))))
(assert (not (and (and (= x15 (x17 x84 x84)) (and (= (x17 x79 x79) x84) (= x27 (x17 x135 x15)))) (= (x17 x84 x79) x135))))
(assert (not (and (and (= (x17 x15 x15) x79) (and (= x27 (x17 x84 x79)) (= (x17 x135 x135) x15))) (= (x17 x15 x135) x84))))
(assert (not (and (= x79 (x17 x135 x84)) (and (and (= x15 (x17 x79 x27)) (= x135 (x17 x84 x84))) (= x27 (x17 x135 x135))))))
(assert (let ((x21 (x17 x27 x84)) (x138 (x17 x27 x135)) (x44 (x17 x135 x79)) (x73 (x17 x79 x84)) (x112 (x17 x135 x27)) (x122 (x17 x84 x27)) (x86 (x17 x15 x79)) (x68 (x17 x27 x79)) (x104 (x17 x84 x135)) (x121 (x17 x79 x15)) (x69 (x17 x84 x79)) (x116 (x17 x27 x15)) (x89 (x17 x15 x27)) (x71 (x17 x84 x84)) (x114 (x17 x135 x135)) (x144 (x17 x79 x27)) (x70 (x17 x15 x84)) (x128 (x17 x84 x15)) (x117 (x17 x79 x79)) (x59 (x17 x15 x135)) (x152 (x17 x135 x15)) (x29 (x17 x27 x27)) (x24 (x17 x79 x135)) (x101 (x17 x15 x15)) (x94 (x17 x135 x84))) (and (and (and (and (and (and (not (= x138 x29)) (and (and (not (= x116 x138)) (and (and (and (not (= x116 x21)) (not (= x138 x21))) (not (= x68 x21))) (not (= x29 x21)))) (not (= x138 x68)))) (not (= x116 x68))) (not (= x116 x29))) (not (= x29 x68))) (and (and (and (and (not (= x44 x112)) (and (not (= x152 x112)) (and (not (= x44 x152)) (and (not (= x114 x112)) (and (and (not (= x152 x114)) (and (and (not (= x44 x94)) (and (not (= x94 x152)) (not (= x94 x114)))) (not (= x112 x94)))) (not (= x44 x114))))))) (and (and (not (= x122 x128)) (and (not (= x69 x128)) (and (and (and (not (= x104 x128)) (and (not (= x122 x71)) (and (not (= x69 x71)) (and (not (= x128 x71)) (not (= x71 x104)))))) (not (= x104 x69))) (not (= x122 x104))))) (not (= x122 x69)))) (and (not (= x86 x89)) (and (not (= x101 x89)) (and (and (and (and (and (and (and (not (= x101 x70)) (not (= x59 x70))) (not (= x70 x86))) (not (= x70 x89))) (not (= x101 x59))) (not (= x59 x86))) (not (= x89 x59))) (not (= x101 x86)))))) (and (not (= x117 x144)) (and (not (= x121 x144)) (and (not (= x121 x117)) (and (not (= x144 x24)) (and (and (not (= x121 x24)) (and (and (not (= x117 x73)) (and (not (= x73 x121)) (not (= x73 x24)))) (not (= x73 x144)))) (not (= x24 x117))))))))) (and (and (and (and (and (and (not (= x144 x112)) (and (and (not (= x122 x29)) (and (and (not (= x112 x122)) (not (= x89 x122))) (not (= x144 x122)))) (not (= x89 x112)))) (not (= x112 x29))) (not (= x89 x144))) (not (= x89 x29))) (not (= x29 x144))) (and (and (and (and (not (= x117 x86)) (and (and (and (not (= x86 x44)) (and (not (= x69 x68)) (and (and (not (= x44 x69)) (not (= x69 x86))) (not (= x69 x117))))) (not (= x117 x44))) (not (= x68 x44)))) (not (= x68 x86))) (not (= x117 x68))) (and (and (and (and (and (and (not (= x138 x114)) (and (and (not (= x114 x59)) (and (not (= x138 x104)) (and (and (not (= x59 x104)) (not (= x104 x114))) (not (= x24 x104))))) (not (= x24 x114)))) (not (= x24 x59))) (not (= x59 x138))) (not (= x138 x24))) (and (not (= x21 x73)) (and (not (= x70 x21)) (and (not (= x73 x70)) (and (and (and (not (= x70 x94)) (and (and (and (not (= x70 x71)) (not (= x71 x94))) (not (= x73 x71))) (not (= x71 x21)))) (not (= x73 x94))) (not (= x21 x94))))))) (and (not (= x116 x121)) (and (not (= x101 x116)) (and (not (= x121 x101)) (and (and (and (and (not (= x128 x116)) (and (and (not (= x128 x101)) (not (= x128 x152))) (not (= x128 x121)))) (not (= x152 x101))) (not (= x152 x121))) (not (= x116 x152))))))))))))
(assert (not (and (and (= x15 (x17 x27 x27)) (and (= (x17 x84 x15) x135) (= x27 (x17 x79 x79)))) (= x84 (x17 x27 x79)))))
(assert (not (and (and (and (= (x17 x79 x79) x135) (= (x17 x27 x15) x84)) (= x15 (x17 x135 x135))) (= x27 (x17 x135 x79)))))
(assert (not (and (and (= x79 (x17 x84 x84)) (and (= (x17 x15 x15) x84) (= x27 (x17 x135 x79)))) (= (x17 x84 x15) x135))))
(assert (not (and (= (x17 x79 x135) x27) (and (= (x17 x79 x79) x84) (and (= (x17 x135 x135) x79) (= (x17 x27 x84) x15))))))
(assert (not (and (= x79 (x17 x84 x135)) (and (= (x17 x84 x84) x27) (and (= x15 (x17 x79 x27)) (= x84 (x17 x135 x135)))))))
(assert (not (and (and (= (x17 x27 x27) x84) (and (= x135 (x17 x15 x84)) (= (x17 x79 x79) x27))) (= x15 (x17 x27 x79)))))
(assert (not (and (= x135 (x17 x15 x27)) (and (and (= x79 (x17 x135 x84)) (= (x17 x27 x27) x15)) (= (x17 x15 x15) x84)))))
(assert (not (and (and (and (= (x17 x79 x79) x15) (= (x17 x84 x135) x27)) (= x135 (x17 x15 x15))) (= x84 (x17 x15 x79)))))
(assert (not (and (and (= (x17 x27 x27) x15) (and (= (x17 x79 x15) x135) (= (x17 x84 x84) x27))) (= (x17 x27 x84) x79))))
(assert (not (and (and (= (x17 x135 x135) x15) (and (= (x17 x84 x84) x135) (= x27 (x17 x79 x15)))) (= (x17 x135 x84) x79))))
(assert (not (and (and (and (= x79 (x17 x135 x135)) (= (x17 x84 x27) x15)) (= x27 (x17 x79 x79))) (= (x17 x79 x135) x84))))
(assert (not (and (= x135 (x17 x27 x15)) (and (= x84 (x17 x27 x27)) (and (= (x17 x15 x15) x27) (= (x17 x135 x84) x79))))))
(assert (not (and (= (x17 x79 x84) x15) (and (= x135 (x17 x79 x79)) (and (= (x17 x84 x84) x79) (= x27 (x17 x15 x135)))))))
(assert (and (and (and (not (= x15 (x17 x15 x15))) (and (not (= (x17 x84 x84) x84)) (not (= x135 (x17 x135 x135))))) (not (= (x17 x79 x79) x79))) (not (= x27 (x17 x27 x27)))))
(assert (not (and (= x84 (x17 x15 x135)) (and (= x27 (x17 x15 x15)) (and (= x15 (x17 x135 x135)) (= (x17 x84 x27) x79))))))
(assert (not (and (and (and (= (x17 x135 x27) x79) (= (x17 x84 x84) x15)) (= (x17 x15 x15) x27)) (= (x17 x15 x84) x135))))
(assert (not (and (= x135 (x17 x15 x79)) (and (and (= (x17 x79 x79) x15) (= (x17 x135 x84) x27)) (= x84 (x17 x15 x15))))))
(assert (not (and (and (and (= x84 (x17 x27 x27)) (= (x17 x135 x79) x15)) (= x79 (x17 x84 x84))) (= (x17 x84 x27) x135))))
(assert (let ((x112 (x17 x135 x27)) (x78 (x17 x27 x135)) (x120 (x17 x27 x79)) (x125 (x17 x27 x27)) (x21 (x17 x84 x79)) (x104 (x17 x84 x27)) (x45 (x17 x15 x15)) (x24 (x17 x15 x84)) (x70 (x17 x84 x135)) (x68 (x17 x135 x15)) (x94 (x17 x84 x84)) (x122 (x17 x135 x79)) (x73 (x17 x84 x15)) (x138 (x17 x79 x84)) (x64 (x17 x79 x79)) (x96 (x17 x79 x27)) (x10 (x17 x79 x15)) (x150 (x17 x27 x15)) (x30 (x17 x15 x27)) (x59 (x17 x135 x84)) (x128 (x17 x27 x84)) (x151 (x17 x79 x135)) (x117 (x17 x135 x135)) (x11 (x17 x15 x79)) (x29 (x17 x15 x135))) (let ((x124 (= x79 x117)) (x92 (= x27 x11)) (x143 (= x79 x45)) (x109 (= x27 x70)) (x69 (= x70 x84)) (x115 (= x128 x27)) (x61 (= x112 x15)) (x51 (= x84 x68)) (x80 (= x24 x15)) (x139 (= x151 x84)) (x107 (= x112 x79)) (x41 (= x135 x125)) (x46 (= x84 x96)) (x57 (= x30 x15)) (x134 (= x138 x135)) (x75 (= x79 x68)) (x66 (= x79 x11)) (x113 (= x79 x150)) (x2 (= x27 x64)) (x103 (= x15 x96)) (x16 (= x135 x64)) (x98 (= x135 x45)) (x48 (= x27 x122)) (x37 (= x79 x30)) (x23 (= x68 x135)) (x132 (= x11 x135)) (x39 (= x135 x120)) (x157 (= x135 x112)) (x43 (= x122 x15)) (x144 (= x117 x135)) (x49 (= x21 x84)) (x50 (= x30 x84)) (x90 (= x15 x117)) (x129 (= x122 x79)) (x1 (= x151 x79)) (x56 (= x104 x79)) (x149 (= x29 x27)) (x141 (= x84 x10)) (x81 (= x73 x84)) (x87 (= x135 x150)) (x131 (= x11 x84)) (x155 (= x96 x135)) (x71 (= x84 x94)) (x108 (= x78 x135)) (x28 (= x96 x27)) (x62 (= x104 x135)) (x53 (= x84 x125)) (x110 (= x84 x24)) (x76 (= x79 x29)) (x34 (= x78 x27)) (x126 (= x68 x27)) (x72 (= x135 x30)) (x93 (= x15 x73)) (x31 (= x45 x27)) (x58 (= x15 x10)) (x142 (= x64 x15)) (x127 (= x79 x64)) (x116 (= x59 x84)) (x154 (= x79 x21)) (x74 (= x11 x15)) (x44 (= x117 x84)) (x4 (= x150 x84)) (x60 (= x68 x15)) (x65 (= x128 x135)) (x123 (= x29 x84)) (x88 (= x70 x15)) (x35 (= x84 x64)) (x67 (= x151 x15)) (x152 (= x94 x15)) (x6 (= x112 x27)) (x99 (= x73 x27)) (x111 (= x79 x125)) (x101 (= x79 x94)) (x145 (= x21 x15)) (x106 (= x84 x128)) (x36 (= x138 x79)) (x42 (= x15 x78)) (x140 (= x120 x84)) (x89 (= x135 x70)) (x52 (= x84 x122)) (x147 (= x151 x135)) (x14 (= x79 x10)) (x47 (= x15 x59)) (x77 (= x15 x138)) (x13 (= x78 x79)) (x55 (= x10 x27)) (x121 (= x27 x94)) (x25 (= x84 x78)) (x105 (= x27 x138)) (x26 (= x120 x15)) (x20 (= x27 x30)) (x156 (= x79 x128)) (x40 (= x135 x29)) (x91 (= x15 x104)) (x85 (= x24 x135)) (x95 (= x45 x84)) (x5 (= x104 x27)) (x19 (= x73 x135)) (x100 (= x24 x79)) (x114 (= x135 x94)) (x133 (= x112 x84)) (x54 (= x73 x79)) (x63 (= x27 x59)) (x18 (= x84 x104)) (x33 (= x45 x15)) (x9 (= x27 x151)) (x7 (= x135 x10)) (x8 (= x21 x135)) (x136 (= x120 x79)) (x119 (= x27 x125)) (x102 (= x27 x120)) (x148 (= x125 x15)) (x146 (= x79 x59)) (x32 (= x15 x128)) (x130 (= x15 x150)) (x158 (= x79 x96)) (x86 (= x135 x59)) (x38 (= x29 x15)) (x83 (= x117 x27)) (x82 (= x27 x150)) (x3 (= x24 x27)) (x97 (= x84 x138)) (x153 (= x21 x27)) (x12 (= x122 x135)) (x22 (= x70 x79))) (and (and (and (and (and (and (and (or (or (or x100 (or x146 x101)) x36) x156) (or (or (or x54 (or x22 x101)) x154) x56)) (and (and (or (or x145 (or (or x88 x152) x93)) x91) (or (or x77 (or (or x152 x47) x80)) x32)) (and (and (or x62 (or x8 (or (or x114 x89) x19))) (or (or (or (or x114 x86) x85) x134) x65)) (and (or (or x97 (or x110 (or x116 x71))) x106) (or (or x49 (or (or x69 x71) x81)) x18))))) (and (or (or (or x99 (or x121 x109)) x153) x5) (or (or x105 (or (or x63 x121) x3)) x115))) (and (and (or (or x48 (or x126 (or x83 x63))) x6) (or (or (or (or x109 x83) x149) x9) x34)) (and (and (and (or (or x67 (or (or x90 x88) x38)) x42) (or (or (or (or x90 x47) x60) x43) x61)) (and (and (or (or (or x123 (or x69 x44)) x139) x25) (or (or (or x51 (or x116 x44)) x52) x133)) (and (or x157 (or x12 (or x23 (or x144 x86)))) (or x108 (or (or x40 (or x144 x89)) x147))))) (and (or x107 (or x129 (or (or x146 x124) x75))) (or x13 (or (or (or x124 x22) x76) x1)))))) (and (and (or (or (or x31 (or x126 x99)) x55) x82) (or (or x92 (or (or x149 x3) x31)) x20)) (and (and (and (and (or (or x7 (or (or x19 x23) x98)) x87) (or (or (or x98 (or x85 x40)) x132) x72)) (and (or x4 (or (or (or x81 x51) x95) x141)) (or (or (or (or x123 x110) x95) x131) x50))) (and (or x57 (or (or (or x38 x80) x33) x74)) (or (or x58 (or (or x93 x60) x33)) x130))) (and (or (or (or (or x54 x75) x143) x14) x113) (or (or (or x143 (or x100 x76)) x66) x37))))) (and (and (or (or (or x55 (or x9 x105)) x2) x28) (or x102 (or x2 (or (or x153 x48) x92)))) (and (and (and (or x103 (or x142 (or x58 (or x67 x77)))) (or (or (or x74 (or x145 x43)) x142) x26)) (and (and (or x155 (or x16 (or (or x134 x147) x7))) (or (or x16 (or x132 (or x12 x8))) x39)) (and (or x46 (or x35 (or x141 (or x97 x139)))) (or x140 (or (or x131 (or x49 x52)) x35))))) (and (or (or (or x14 (or x1 x36)) x127) x158) (or x136 (or x127 (or x66 (or x154 x129)))))))) (and (and (or x119 (or (or (or x6 x5) x20) x28)) (or x119 (or x102 (or (or x115 x34) x82)))) (and (and (or (or (or (or x156 x13) x113) x136) x111) (or x111 (or x158 (or (or x56 x107) x37)))) (and (and (or x148 (or (or (or x61 x91) x57) x103)) (or (or (or (or x42 x32) x130) x26) x148)) (and (and (or x53 (or (or (or x18 x133) x50) x46)) (or x53 (or (or x4 (or x25 x106)) x140))) (and (or (or (or (or x157 x62) x72) x155) x41) (or (or x39 (or x87 (or x65 x108))) x41))))))))))
(assert (not (and (= x27 (x17 x15 x135)) (and (= x79 (x17 x15 x15)) (and (= (x17 x135 x135) x15) (= (x17 x27 x79) x84))))))
(assert (not (and (= (x17 x79 x27) x135) (and (and (= x79 (x17 x27 x27)) (= x15 (x17 x135 x84))) (= x84 (x17 x79 x79))))))
(assert (not (and (and (= (x17 x135 x135) x84) (and (= x135 (x17 x27 x27)) (= (x17 x15 x84) x79))) (= (x17 x135 x27) x15))))
(assert (not (and (and (and (= x15 (x17 x135 x27)) (= (x17 x79 x79) x84)) (= x27 (x17 x84 x84))) (= (x17 x84 x79) x135))))
(assert (not (and (= x135 (x17 x27 x79)) (and (and (= x84 (x17 x135 x15)) (= x27 (x17 x79 x79))) (= (x17 x27 x27) x15)))))
(assert (not (and (and (and (= x84 (x17 x27 x27)) (= (x17 x79 x135) x15)) (= x135 (x17 x84 x84))) (= (x17 x84 x27) x79))))
(assert (not (and (= x79 (x17 x27 x15)) (and (and (= (x17 x79 x135) x84) (= x27 (x17 x15 x15))) (= (x17 x27 x27) x135)))))
(assert (not (and (= x84 (x17 x79 x15)) (and (= (x17 x79 x79) x27) (and (= (x17 x15 x15) x79) (= x135 (x17 x84 x27)))))))
(assert (not (and (= (x17 x27 x135) x84) (and (= x79 (x17 x27 x27)) (and (= (x17 x135 x135) x27) (= x15 (x17 x84 x79)))))))
(assert (not (and (and (and (= x15 (x17 x135 x84)) (= x27 (x17 x79 x79))) (= (x17 x27 x27) x84)) (= (x17 x27 x79) x135))))
(assert (not (and (and (and (= x15 (x17 x27 x79)) (= (x17 x135 x135) x84)) (= (x17 x84 x84) x79)) (= (x17 x84 x135) x27))))
(assert (not (and (= (x17 x15 x27) x84) (and (= x135 (x17 x15 x15)) (and (= (x17 x84 x135) x79) (= x15 (x17 x27 x27)))))))
(assert (not (and (and (and (= (x17 x79 x15) x84) (= (x17 x27 x27) x135)) (= x15 (x17 x135 x135))) (= (x17 x135 x27) x79))))
(assert (not (and (= (x17 x27 x84) x135) (and (and (= x79 (x17 x135 x15)) (= (x17 x84 x84) x27)) (= (x17 x27 x27) x15)))))
(assert (not (and (and (= (x17 x79 x79) x84) (and (= (x17 x15 x84) x135) (= (x17 x27 x27) x79))) (= x15 (x17 x79 x27)))))
(assert (not (and (and (= x84 (x17 x135 x135)) (and (= (x17 x79 x84) x15) (= x135 (x17 x27 x27)))) (= (x17 x135 x27) x79))))
(assert (not (and (and (and (= (x17 x15 x27) x135) (= x79 (x17 x84 x84))) (= (x17 x79 x79) x27)) (= (x17 x79 x84) x15))))
(assert (not (and (and (and (= (x17 x15 x135) x84) (= (x17 x27 x27) x79)) (= x135 (x17 x79 x79))) (= x15 (x17 x79 x27)))))
(assert (not (and (and (and (= x79 (x17 x27 x15)) (= x84 (x17 x135 x135))) (= x15 (x17 x84 x84))) (= x27 (x17 x84 x135)))))
(assert (not (and (= x27 (x17 x15 x135)) (and (and (= x15 (x17 x135 x135)) (= x79 (x17 x27 x84))) (= x84 (x17 x15 x15))))))
(assert (and (and (and (and (or (or (or (or (= x135 (x17 x84 x135)) (= x84 (x17 x84 x84))) (= (x17 x84 x15) x15)) (= (x17 x84 x79) x79)) (= x27 (x17 x84 x27))) (or (or (= x79 (x17 x135 x79)) (or (or (= (x17 x135 x135) x135) (= (x17 x135 x84) x84)) (= x15 (x17 x135 x15)))) (= (x17 x135 x27) x27))) (or (= x27 (x17 x15 x27)) (or (or (or (= (x17 x15 x135) x135) (= x84 (x17 x15 x84))) (= (x17 x15 x15) x15)) (= (x17 x15 x79) x79)))) (or (= x27 (x17 x79 x27)) (or (= x79 (x17 x79 x79)) (or (= x15 (x17 x79 x15)) (or (= (x17 x79 x84) x84) (= x135 (x17 x79 x135))))))) (or (or (or (or (= (x17 x27 x135) x135) (= (x17 x27 x84) x84)) (= (x17 x27 x15) x15)) (= (x17 x27 x79) x79)) (= x27 (x17 x27 x27)))))
(assert (not (and (= (x17 x84 x15) x79) (and (= x135 (x17 x84 x84)) (and (= (x17 x79 x135) x27) (= (x17 x15 x15) x84))))))
(assert (not (and (and (= (x17 x79 x79) x15) (and (= x79 (x17 x27 x27)) (= x135 (x17 x84 x15)))) (= x84 (x17 x79 x27)))))
(assert (not (and (= x27 (x17 x79 x84)) (and (= x135 (x17 x79 x79)) (and (= x79 (x17 x84 x84)) (= x15 (x17 x27 x135)))))))
(assert (not (and (and (and (= x79 (x17 x15 x15)) (= x27 (x17 x84 x135))) (= x135 (x17 x79 x79))) (= x84 (x17 x79 x15)))))
(assert (not (and (= x79 (x17 x15 x27)) (and (and (= (x17 x27 x27) x15) (= (x17 x79 x84) x135)) (= x84 (x17 x15 x15))))))
(assert (not (and (= x27 (x17 x79 x15)) (and (and (= x79 (x17 x15 x15)) (= (x17 x27 x84) x135)) (= (x17 x79 x79) x84)))))
(assert (let ((x59 (x17 x135 x15)) (x114 (x17 x15 x135)) (x29 (= x27 (x17 x27 x27))) (x128 (x17 x84 x79)) (x117 (x17 x27 x135)) (x68 (x17 x135 x27)) (x73 (= x135 (x17 x135 x135))) (x104 (x17 x84 x15)) (x101 (x17 x135 x79)) (x71 (= x84 (x17 x84 x84))) (x116 (x17 x15 x79)) (x122 (x17 x27 x15)) (x152 (x17 x79 x135)) (x24 (= x15 (x17 x15 x15))) (x44 (x17 x27 x84)) (x70 (x17 x84 x135)) (x121 (x17 x79 x15)) (x112 (x17 x15 x27)) (x89 (x17 x27 x79)) (x86 (x17 x84 x27)) (x21 (x17 x15 x84)) (x144 (x17 x79 x27)) (x138 (x17 x79 x84)) (x94 (x17 x135 x84)) (x69 (= (x17 x79 x79) x79))) (or (or (or (or (and (= x122 x27) (= x112 x27)) (or (and (= x27 x44) (= x86 x27)) (and (= x117 x27) (= x27 x68)))) (and (= x144 x27) (= x27 x89))) (and x29 x29)) (or (or (and (= x79 x89) (= x144 x79)) (or (or (or (and (= x152 x79) (= x79 x101)) (and (= x79 x128) (= x79 x138))) (and (= x116 x79) (= x79 x121))) (and x69 x69))) (or (or (and (= x112 x15) (= x15 x122)) (or (or (or (and (= x15 x21) (= x15 x104)) (and (= x15 x114) (= x15 x59))) (and x24 x24)) (and (= x15 x116) (= x15 x121)))) (or (or (or (or (or (and (= x84 x70) (= x94 x84)) (and x71 x71)) (and (= x104 x84) (= x21 x84))) (and (= x138 x84) (= x128 x84))) (and (= x84 x86) (= x84 x44))) (or (and (= x117 x135) (= x135 x68)) (or (and (= x135 x152) (= x135 x101)) (or (or (and x73 x73) (and (= x135 x70) (= x135 x94))) (and (= x135 x114) (= x135 x59)))))))))))
(assert (not (and (and (and (= x135 (x17 x27 x27)) (= (x17 x84 x15) x79)) (= (x17 x135 x135) x15)) (= x84 (x17 x135 x27)))))
(assert (not (and (= (x17 x15 x27) x79) (and (= x135 (x17 x15 x15)) (and (= x84 (x17 x79 x135)) (= x15 (x17 x27 x27)))))))
(assert (not (and (= x27 (x17 x15 x79)) (and (= x135 (x17 x15 x15)) (and (= (x17 x27 x135) x84) (= (x17 x79 x79) x15))))))
(assert (not (and (= x15 (x17 x79 x135)) (and (and (= x79 (x17 x135 x135)) (= x84 (x17 x15 x27))) (= (x17 x79 x79) x27)))))
(assert (not (and (and (= x27 (x17 x135 x135)) (and (= (x17 x84 x27) x15) (= x135 (x17 x79 x79)))) (= (x17 x135 x79) x84))))
(assert (not (and (and (and (= x27 (x17 x84 x84)) (= (x17 x79 x135) x15)) (= (x17 x27 x27) x135)) (= (x17 x27 x84) x79))))
(assert (not (and (= x27 (x17 x15 x79)) (and (and (= x15 (x17 x79 x79)) (= (x17 x27 x84) x135)) (= x84 (x17 x15 x15))))))
(assert (not (and (= (x17 x79 x84) x135) (and (and (= x79 (x17 x84 x84)) (= x27 (x17 x135 x15))) (= (x17 x79 x79) x15)))))
(assert (and (and (not (= x15 x27)) (and (not (= x15 x79)) (and (not (= x27 x135)) (and (and (not (= x135 x15)) (and (not (= x27 x84)) (and (and (not (= x84 x135)) (not (= x84 x15))) (not (= x79 x84))))) (not (= x79 x135)))))) (not (= x79 x27))))
(check-sat)
(exit)
